NAME : in_house_9_1
TYPE : TSP
DIMENSION : 9
EDGE_WEIGHT_TYPE : EXPLICIT
EDGE_WEIGHT_FORMAT : UPPER_ROW
COMMENT : INVERSION_SHIFT=8
EDGE_WEIGHT_SECTION
53
4
6
22
7
3
21
52
22
72
1
24
8
47
59
6
18
63
48
23
60
63
74
42
5
28
80
70
10
13
79
26
33
47
20
56
